\ENCODING=ISO-8859-1
\Problem name: IloCplex

Minimize
 obj: Y0 + Y1 + Y2 + Y3
Subject To
 Rest_2#0:  - b0,1 + B0,0 <= 0
 c2#1:      - b0,0 + B0,0 <= 0
 c3#2:      - b0,0 - b0,1 + B0,0 >= -1
 Rest_2#3:  - b1,1 + B1,0 <= 0
 c5#4:      - b1,0 + B1,0 <= 0
 c6#5:      - b1,0 - b1,1 + B1,0 >= -1
 Rest_2#6:  - b2,1 + B2,0 <= 0
 c8#7:      - b2,0 + B2,0 <= 0
 c9#8:      - b2,0 - b2,1 + B2,0 >= -1
 Rest_2#9:  - b3,1 + B3,0 <= 0
 c11#10:    - b3,0 + B3,0 <= 0
 c12#11:    - b3,0 - b3,1 + B3,0 >= -1
 Rest_3#12: Y0 - B0,0 >= 0
 Rest_4#13: Y0 - B0,0 <= 0
 Rest_3#14: Y1 - B1,0 >= 0
 Rest_4#15: Y1 - B1,0 <= 0
 Rest_3#16: Y2 - B2,0 >= 0
 Rest_4#17: Y2 - B2,0 <= 0
 Rest_3#18: Y3 - B3,0 >= 0
 Rest_4#19: Y3 - B3,0 <= 0
 Rest_5#20: - X0,0 + b0,0 >= 0
 Rest_5#21: b0,0 >= 0
 Rest_5#22: b0,0 >= 0
 Rest_5#23: b0,0 >= 0
 Rest_5#24: b0,0 >= 0
 Rest_5#25: b0,0 >= 0
 Rest_6#26: - X0,0 + b0,0 <= 0
 c28#27:    60 b0,0 <= 60
 Rest_5#28: - X1,0 + b0,1 >= 0
 Rest_5#29: b0,1 >= 0
 Rest_5#30: b0,1 >= 0
 Rest_5#31: b0,1 >= 0
 Rest_5#32: b0,1 >= 0
 Rest_5#33: b0,1 >= 0
 Rest_6#34: - X1,0 + b0,1 <= 0
 c36#35:    60 b0,1 <= 30
 Rest_5#36: b1,0 >= 0
 Rest_5#37: - X0,1 + b1,0 >= 0
 Rest_5#38: b1,0 >= 0
 Rest_5#39: - X0,3 + b1,0 >= 0
 Rest_5#40: b1,0 >= 0
 Rest_5#41: b1,0 >= 0
 Rest_6#42: - X0,1 - X0,3 + b1,0 <= 0
 c44#43:    30 b1,0 <= 60
 Rest_5#44: b1,1 >= 0
 Rest_5#45: - X1,1 + b1,1 >= 0
 Rest_5#46: b1,1 >= 0
 Rest_5#47: - X1,3 + b1,1 >= 0
 Rest_5#48: b1,1 >= 0
 Rest_5#49: b1,1 >= 0
 Rest_6#50: - X1,1 - X1,3 + b1,1 <= 0
 c52#51:    30 b1,1 <= 30
 Rest_5#52: b2,0 >= 0
 Rest_5#53: b2,0 >= 0
 Rest_5#54: - X0,2 + b2,0 >= 0
 Rest_5#55: b2,0 >= 0
 Rest_5#56: b2,0 >= 0
 Rest_5#57: b2,0 >= 0
 Rest_6#58: - X0,2 + b2,0 <= 0
 c60#59:    60 b2,0 <= 60
 Rest_5#60: b2,1 >= 0
 Rest_5#61: b2,1 >= 0
 Rest_5#62: - X1,2 + b2,1 >= 0
 Rest_5#63: b2,1 >= 0
 Rest_5#64: b2,1 >= 0
 Rest_5#65: b2,1 >= 0
 Rest_6#66: - X1,2 + b2,1 <= 0
 c68#67:    60 b2,1 <= 30
 Rest_5#68: b3,0 >= 0
 Rest_5#69: b3,0 >= 0
 Rest_5#70: b3,0 >= 0
 Rest_5#71: b3,0 >= 0
 Rest_5#72: - X0,4 + b3,0 >= 0
 Rest_5#73: - X0,5 + b3,0 >= 0
 Rest_6#74: - X0,4 - X0,5 + b3,0 <= 0
 c76#75:    30 b3,0 <= 60
 Rest_5#76: b3,1 >= 0
 Rest_5#77: b3,1 >= 0
 Rest_5#78: b3,1 >= 0
 Rest_5#79: b3,1 >= 0
 Rest_5#80: - X1,4 + b3,1 >= 0
 Rest_5#81: - X1,5 + b3,1 >= 0
 Rest_6#82: - X1,4 - X1,5 + b3,1 <= 0
 c84#83:    30 b3,1 <= 30
 c85#84:    X0,0 + X1,0  = 1
 c86#85:    X0,1 + X1,1  = 1
 c87#86:    X0,2 + X1,2  = 1
 c88#87:    X0,3 + X1,3  = 1
 c89#88:    X0,4 + X1,4  = 1
 c90#89:    X0,5 + X1,5  = 1
 c91#90:    X0,0 + X0,5 <= 1
 c92#91:    X0,1 + X0,4 <= 1
 c93#92:    X0,2 + X0,3 <= 1
 c94#93:    X1,0 + X1,5 <= 1
 c95#94:    X1,1 + X1,4 <= 1
 c96#95:    X1,2 + X1,3 <= 1
Bounds
 0 <= X0,0 <= 1
 0 <= X0,1 <= 1
 0 <= X0,2 <= 1
 0 <= X0,3 <= 1
 0 <= X0,4 <= 1
 0 <= X0,5 <= 1
 0 <= X1,0 <= 1
 0 <= X1,1 <= 1
 0 <= X1,2 <= 1
 0 <= X1,3 <= 1
 0 <= X1,4 <= 1
 0 <= X1,5 <= 1
 0 <= b0,0 <= 1
 0 <= b0,1 <= 1
 0 <= b1,0 <= 1
 0 <= b1,1 <= 1
 0 <= b2,0 <= 1
 0 <= b2,1 <= 1
 0 <= b3,0 <= 1
 0 <= b3,1 <= 1
 0 <= Y0 <= 1
 0 <= Y1 <= 1
 0 <= Y2 <= 1
 0 <= Y3 <= 1
 0 <= B0,0 <= 1
 0 <= B1,0 <= 1
 0 <= B2,0 <= 1
 0 <= B3,0 <= 1
Binaries
 X0,0  X0,1  X0,2  X0,3  X0,4  X0,5  X1,0  X1,1  X1,2  X1,3  X1,4  X1,5  b0,0 
 b0,1  b1,0  b1,1  b2,0  b2,1  b3,0  b3,1  Y0  Y1  Y2  Y3  B0,0  B1,0  B2,0 
 B3,0 
End
